Problem:    Hosting
Rows:       6
Columns:    3
Non-zeros:  11
Status:     OPTIMAL
Objective:  Utenze = 525 (MAXimum)

   No.   Row name   St   Activity     Lower bound   Upper bound    Marginal
------ ------------ -- ------------- ------------- ------------- -------------
     1 Utenze       B            525                             
     2 constr_limiti[CPU]
                    NU            50                          50         0.375 
     3 constr_limiti[RAM]
                    B             25                          50 
     4 constr_limiti[banda]
                    B              0                          60 
     5 constr_budget
                    NU           450                         450         1.125 
     6 constr_RAMCPU
                    B              0            -0               

   No. Column name  St   Activity     Lower bound   Upper bound    Marginal
------ ------------ -- ------------- ------------- ------------- -------------
     1 x[CPU]       B             50             0               
     2 x[RAM]       B             25             0               
     3 x[banda]     NL             0             0                        -0.5 

Karush-Kuhn-Tucker optimality conditions:

KKT.PE: max.abs.err = 0.00e+000 on row 0
        max.rel.err = 0.00e+000 on row 0
        High quality

KKT.PB: max.abs.err = 0.00e+000 on row 0
        max.rel.err = 0.00e+000 on row 0
        High quality

KKT.DE: max.abs.err = 0.00e+000 on column 0
        max.rel.err = 0.00e+000 on column 0
        High quality

KKT.DB: max.abs.err = 0.00e+000 on row 0
        max.rel.err = 0.00e+000 on row 0
        High quality

End of output
